NAME : single
TYPE : ATSP
DIMENSION : 6
EDGE_WEIGHT_TYPE : EXPLICIT
EDGE_WEIGHT_FORMAT : FULL_MATRIX
EDGE_WEIGHT_SECTION
0 1926 6829 3562 3757 4383 
199614 0 7932 1636 1831 2456 
198634 7932 0 9447 9642 10241 
199287 1636 9447 0 235 1877 
199248 1831 9642 235 0 1898 
199123 2456 10241 1877 1898 0 
EOF